int NumberPatients = 117
int NumberOfRooms = 1
int NumberSurgeons = 12
int NumberOfDays = 6
Duration = [32,32,105,201,30,32,198,198,201,50,60,32,126,31,78,32,32,32,32,32,32,32,32,32,201,32,201,31,41,32,104,32,32,140,32,201,50,32,201,32,201,32,32,32,32,41,166,32,32,50,272,32,76,32,31,32,31,131,35,32,32,32,31,31,38,30,32,32,32,32,40,50,32,32,50,32,32,41,32,32,50,30,32,32,50,140,32,41,31,32,31,120,32,31,31,50,32,31,208,32,125,32,32,138,32,30,32,50,32,60,31,65,32,31,60,30,32];
Priority = [0,0,0,0,0,0,0,0,0,0,0,0,0,0,0,0,0,0,0,0,0,0,0,0,0,0,0,0,0,0,0,0,0,0,0,0,2,0,0,0,0,0,0,0,0,0,0,0,0,0,0,0,0,0,0,0,0,0,0,0,0,0,0,0,0,0,0,0,0,0,0,0,0,0,0,0,0,0,0,0,0,0,0,0,0,0,0,0,0,0,0,0,0,0,0,0,0,0,1,0,0,0,0,0,0,0,0,0,0,0,0,0,0,0,0,0,0];
Waiting = [207,211,213,315,221,259,297,248,232,277,280,281,428,284,196,178,163,156,133,120,119,108,107,102,102,102,101,99,94,93,87,86,80,80,78,74,73,72,67,63,63,63,63,63,60,60,60,59,59,59,59,59,59,58,57,57,56,56,53,53,53,53,52,52,52,52,51,49,49,46,46,46,45,45,45,45,44,44,43,43,43,43,39,39,39,39,39,38,37,35,35,35,35,32,32,32,32,32,31,24,24,24,24,25,25,25,30,25,25,25,21,21,23,23,23,21,21];

Surgeon = [1,2,3,4,5,1,6,6,4,1,7,8,9,4,1,7,10,7,1,5,1,7,7,2,4,1,4,4,6,2,6,4,2,6,7,5,6,7,5,7,4,1,1,1,5,5,5,2,2,6,6,2,6,7,5,11,4,1,1,1,1,5,6,12,6,2,4,4,1,1,11,1,5,2,6,5,4,12,11,5,5,5,4,1,4,5,5,12,11,2,4,12,1,4,4,1,1,5,2,6,6,2,2,11,1,1,4,4,4,4,4,11,4,4,4,12,2];
BlockAvailability = [[[1,0]],[[0,0]],[[1,0]],[[0,0]],[[0,0]],[[0,0]]];
SurgeonAvailability = [[[1,1],[1,1],[1,1],[1,1],[1,1],[1,1]],[[1,1],[1,1],[1,1],[1,1],[1,1],[1,1]],[[1,1],[1,1],[1,1],[1,1],[1,1],[1,1]],[[1,1],[1,1],[1,1],[1,1],[1,1],[1,1]],[[1,1],[1,1],[1,1],[1,1],[1,1],[1,1]],[[1,1],[1,1],[1,1],[1,1],[1,1],[1,1]],[[1,1],[1,1],[1,1],[1,1],[1,1],[1,1]],[[1,1],[1,1],[1,1],[1,1],[1,1],[1,1]],[[1,1],[1,1],[1,1],[1,1],[1,1],[1,1]],[[1,1],[1,1],[1,1],[1,1],[1,1],[1,1]],[[1,1],[1,1],[1,1],[1,1],[1,1],[1,1]],[[1,1],[1,1],[1,1],[1,1],[1,1],[1,1]]];
